SPARKNaCl/why3-z3/sparknacl-hkdf.ads_49_24_range_check_1.smt2
;; produced by z3_gnatprove.drv ;;
(set-info :smt-lib-version 2.5)
(set-info :source |VC generated by SPARK 2014|)
(set-info :category industrial)
(set-info :status unknown)
;;; generated by SMT-LIB2 driver
;;; SMT-LIB2 driver: bit-vectors, common part
;;; SMT-LIB2: integer arithmetic
;; "uint_in_range"
(define-fun uint_in_range ((i Int)) Bool
  (and (<= 0 i) (<= i 4294967295)))

(declare-sort tinteger_32B 0)

;; "tinteger_32B'int"
(declare-fun tinteger_32Bqtint (tinteger_32B) Int)

;; "tinteger_32B'axiom"
(assert
  (forall ((i tinteger_32B))
    (and
      (<= (- 2147483648) (tinteger_32Bqtint i))
      (<= (tinteger_32Bqtint i) 2147483647))))

;; "in_range"
(define-fun in_range ((x Int)) Bool
  (and (<= (- 2147483648) x) (<= x 2147483647)))

;; "to_rep"
(define-fun to_rep ((x tinteger_32B)) Int
  (tinteger_32Bqtint x))

;; "of_rep"
(declare-fun of_rep (Int) tinteger_32B)

;; "inversion_axiom"
(assert
  (forall ((x tinteger_32B))
    (! (= (of_rep (to_rep x)) x) :pattern ((to_rep x)) )))

;; "range_axiom"
(assert
  (forall ((x tinteger_32B))
    (! (in_range (to_rep x)) :pattern ((to_rep x)) )))

;; "coerce_axiom"
(assert
  (forall ((x Int))
    (! (=> (in_range x) (= (to_rep (of_rep x)) x)) :pattern ((to_rep
                                                               (of_rep x))) )))

;; "in_range"
(define-fun in_range1 ((x Int)) Bool
  (and (<= 0 x) (<= x 2147483647)))

(declare-sort byte 0)

;; "to_rep"
(declare-fun to_rep1 (byte) (_ BitVec 8))

;; "of_rep"
(declare-fun of_rep1 ((_ BitVec 8)) byte)

;; "inversion_axiom"
(assert
  (forall ((x byte)) (! (= (of_rep1 (to_rep1 x)) x) :pattern ((to_rep1 x)) )))

;; "range_axiom"
(assert true)

;; "coerce_axiom"
(assert
  (forall ((x (_ BitVec 8)))
    (! (= (to_rep1 (of_rep1 x)) x) :pattern ((to_rep1 (of_rep1 x))) )))

(declare-sort map1 0)

(declare-datatypes ()
  ((map__ref (map__refqtmk (map__content map1)))))

;; "has_bounds"
(declare-fun has_bounds (map1
  Int
  Int) Bool)

(declare-datatypes ()
  ((t (tqtmk (rec__first tinteger_32B)(rec__last tinteger_32B)))))

;; "dynamic_property"
(define-fun dynamic_property ((range_first Int) (range_last Int) (low Int) (high Int)) Bool
  (and
    (in_range low)
    (and
      (in_range high)
      (=> (<= low high) (and (in_range1 low) (in_range1 high))))))

(declare-datatypes ()
  ((us_t (us_tqtmk (elts map1)(rt t)))))

;; "first"
(define-fun first ((a us_t)) Int
  (to_rep (rec__first (rt a))))

;; "last"
(define-fun last ((a us_t)) Int
  (to_rep (rec__last (rt a))))

;; "length"
(define-fun length ((a us_t)) Int
  (ite (<= (first a) (last a)) (+ (- (last a) (first a)) 1) 0))

;; "well_formed"
(define-fun well_formed ((a us_t)) Bool
  (has_bounds
    (elts a)
    (to_rep (rec__first (rt a)))
    (to_rep (rec__last (rt a)))))

;; "in_range"
(define-fun in_range2 ((x Int)) Bool
  (and (<= 0 x) (<= x 8159)))

(declare-datatypes ()
  ((t1 (tqtmk1 (rec__first1 tinteger_32B)(rec__last1 tinteger_32B)))))

;; "mk"
(declare-fun mk (Int
  Int) t1)

;; "mk_def"
(assert
  (forall ((f Int) (l Int))
    (! (=>
         (in_range f)
         (=>
           (in_range l)
           (and
             (= (to_rep (rec__first1 (mk f l))) f)
             (= (to_rep (rec__last1 (mk f l))) l)))) :pattern ((mk f l)) )))

;; "dynamic_property"
(define-fun dynamic_property1 ((range_first Int) (range_last Int) (low Int) (high Int)) Bool
  (and
    (in_range low)
    (and
      (in_range high)
      (=> (<= low high) (and (in_range2 low) (in_range2 high))))))

(declare-datatypes ()
  ((us_t1 (us_tqtmk1 (elts1 map1)(rt1 t1)))))

;; "of_array"
(define-fun of_array ((a map1) (f Int) (l Int)) us_t1
  (us_tqtmk1 a (mk f l)))

;; "well_formed"
(define-fun well_formed1 ((a us_t1)) Bool
  (has_bounds
    (elts1 a)
    (to_rep (rec__first1 (rt1 a)))
    (to_rep (rec__last1 (rt1 a)))))

(declare-const okm__first tinteger_32B)

(declare-const okm__last tinteger_32B)

(declare-const ikm us_t)

(declare-const salt us_t)

(declare-const info us_t)

;; "dynamic_invariant"
(define-fun dynamic_invariant ((temp___expr_244 us_t) (temp___is_init_240 Bool) (temp___skip_constant_241 Bool) (temp___do_toplevel_242 Bool) (temp___do_typ_inv_243 Bool)) Bool
  (and
    (=>
      (not (= temp___skip_constant_241 true))
      (dynamic_property
        0
        2147483647
        (first temp___expr_244)
        (last temp___expr_244)))
    (well_formed temp___expr_244)))

(declare-const okm map1)

(declare-const prk map1)

;; "prk'unused"
(define-fun prkqtunused () map__ref
  (map__refqtmk prk))

;; "okm'unused"
(define-fun okmqtunused () map__ref
  (map__refqtmk okm))

;; "Assume"
(assert
  (and
    (dynamic_property1 0 8159 (to_rep okm__first) (to_rep okm__last))
    (well_formed1 (of_array okm (to_rep okm__first) (to_rep okm__last)))))

;; "Assume"
(assert (dynamic_invariant ikm true false true true))

;; "Assume"
(assert (dynamic_invariant salt true false true true))

;; "Assume"
(assert (dynamic_invariant info true false true true))

;; "o"
(define-fun o () Int
  (length info))

;; "length'result'unused"
(define-fun lengthqtresultqtunused () Int
  o)

;; "Ensures"
(assert (uint_in_range o))

;; "range_check_int_'result'unused"
(define-fun range_check_int_qtresultqtunused () Int
  o)

;; "o"
(define-fun o1 () (_ BitVec 32)
  ((_ int2bv 32) o))

;; "of_int'result'unused"
(define-fun of_intqtresultqtunused () (_ BitVec 32)
  o1)

;; "o"
(define-fun o2 () Bool
  (ite (bvult o1 #x7FFFFF9E) true false))

;; "ult'result'unused"
(define-fun ultqtresultqtunused () Bool
  o2)

;; "o"
(define-fun o3 () Int
  (first info))

;; "first'result'unused"
(define-fun firstqtresultqtunused () Int
  o3)

;; "o"
(define-fun o4 () Bool
  (ite (= o3 0) true false))

;; "infix ='result'unused"
(define-fun infix_eqqtresultqtunused () Bool
  o4)

;; "o"
(define-fun o5 () Int
  (length salt))

;; "length'result'unused"
(define-fun lengthqtresultqtunused1 () Int
  o5)

;; "o"
(define-fun o6 () Bool
  (ite (< 0 o5) true false))

;; "infix >'result'unused"
(define-fun infix_gtqtresultqtunused () Bool
  o6)

;; "o"
(define-fun o7 () Int
  (first salt))

;; "first'result'unused"
(define-fun firstqtresultqtunused1 () Int
  o7)

;; "o"
(define-fun o8 () Bool
  (ite (= o7 0) true false))

;; "infix ='result'unused"
(define-fun infix_eqqtresultqtunused1 () Bool
  o8)

;; "o"
(define-fun o9 () Int
  (length ikm))

;; "length'result'unused"
(define-fun lengthqtresultqtunused2 () Int
  o9)

;; Goal "def'vc"
;; File "sparknacl-hkdf.ads", line 39, characters 0-0
(assert
  (not (uint_in_range o9)))

(check-sat)
